c nIsolatedPIs 0
c maxPI 32
p cnf 242 631
c gate 33 -7 23 0
-7 -33 0
23 -33 0
7 -23 33 0
c gate 34 -4 20 0
-4 -34 0
20 -34 0
4 -20 34 0
c gate 35 -3 19 0
-3 -35 0
19 -35 0
3 -19 35 0
c gate 36 2 -18 0
2 -36 0
-18 -36 0
-2 18 36 0
c gate 37 -2 18 0
-2 -37 0
18 -37 0
2 -18 37 0
c gate 38 -1 17 0
-1 -38 0
17 -38 0
1 -17 38 0
c gate 39 -37 -38 0
-37 -39 0
-38 -39 0
37 38 39 0
c gate 40 3 -19 0
3 -40 0
-19 -40 0
-3 19 40 0
c gate 41 -39 -40 0
-39 -41 0
-40 -41 0
39 40 41 0
c gate 42 -36 41 0
-36 -42 0
41 -42 0
36 -41 42 0
c gate 43 -35 -42 0
-35 -43 0
-42 -43 0
35 42 43 0
c gate 44 -34 43 0
-34 -44 0
43 -44 0
34 -43 44 0
c gate 45 4 -20 0
4 -45 0
-20 -45 0
-4 20 45 0
c gate 46 5 21 0
5 -46 0
21 -46 0
-5 -21 46 0
c gate 47 -5 -21 0
-5 -47 0
-21 -47 0
5 21 47 0
c gate 48 -46 -47 0
-46 -48 0
-47 -48 0
46 47 48 0
c gate 49 -45 -48 0
-45 -49 0
-48 -49 0
45 48 49 0
c gate 50 -44 49 0
-44 -50 0
49 -50 0
44 -49 50 0
c gate 51 -6 -22 0
-6 -51 0
-22 -51 0
6 22 51 0
c gate 52 6 22 0
6 -52 0
22 -52 0
-6 -22 52 0
c gate 53 -51 -52 0
-51 -53 0
-52 -53 0
51 52 53 0
c gate 54 -5 21 0
-5 -54 0
21 -54 0
5 -21 54 0
c gate 55 -53 -54 0
-53 -55 0
-54 -55 0
53 54 55 0
c gate 56 -50 55 0
-50 -56 0
55 -56 0
50 -55 56 0
c gate 57 -33 56 0
-33 -57 0
56 -57 0
33 -56 57 0
c gate 58 7 -23 0
7 -58 0
-23 -58 0
-7 23 58 0
c gate 59 6 -22 0
6 -59 0
-22 -59 0
-6 22 59 0
c gate 60 -33 59 0
-33 -60 0
59 -60 0
33 -59 60 0
c gate 61 -58 -60 0
-58 -61 0
-60 -61 0
58 60 61 0
c gate 62 -57 61 0
-57 -62 0
61 -62 0
57 -61 62 0
c gate 63 8 24 0
8 -63 0
24 -63 0
-8 -24 63 0
c gate 64 -8 -24 0
-8 -64 0
-24 -64 0
8 24 64 0
c gate 65 -63 -64 0
-63 -65 0
-64 -65 0
63 64 65 0
c gate 66 -62 -65 0
-62 -66 0
-65 -66 0
62 65 66 0
c gate 67 10 -26 0
10 -67 0
-26 -67 0
-10 26 67 0
c gate 68 8 -24 0
8 -68 0
-24 -68 0
-8 24 68 0
c gate 69 9 25 0
9 -69 0
25 -69 0
-9 -25 69 0
c gate 70 -9 -25 0
-9 -70 0
-25 -70 0
9 25 70 0
c gate 71 -69 -70 0
-69 -71 0
-70 -71 0
69 70 71 0
c gate 72 -68 -71 0
-68 -72 0
-71 -72 0
68 71 72 0
c gate 73 -9 25 0
-9 -73 0
25 -73 0
9 -25 73 0
c gate 74 -10 26 0
-10 -74 0
26 -74 0
10 -26 74 0
c gate 75 -73 -74 0
-73 -75 0
-74 -75 0
73 74 75 0
c gate 76 -72 75 0
-72 -76 0
75 -76 0
72 -75 76 0
c gate 77 -67 -76 0
-67 -77 0
-76 -77 0
67 76 77 0
c gate 78 66 75 0
66 -78 0
75 -78 0
-66 -75 78 0
c gate 79 77 -78 0
77 -79 0
-78 -79 0
-77 78 79 0
c gate 80 -11 -27 0
-11 -80 0
-27 -80 0
11 27 80 0
c gate 81 11 27 0
11 -81 0
27 -81 0
-11 -27 81 0
c gate 82 -80 -81 0
-80 -82 0
-81 -82 0
80 81 82 0
c gate 83 79 -82 0
79 -83 0
-82 -83 0
-79 82 83 0
c gate 84 41 43 0
41 -84 0
43 -84 0
-41 -43 84 0
c gate 85 -34 49 0
-34 -85 0
49 -85 0
34 -49 85 0
c gate 86 84 85 0
84 -86 0
85 -86 0
-84 -85 86 0
c gate 87 -56 -86 0
-56 -87 0
-86 -87 0
56 86 87 0
c gate 88 -33 -58 0
-33 -88 0
-58 -88 0
33 58 88 0
c gate 89 -53 88 0
-53 -89 0
88 -89 0
53 -88 89 0
c gate 90 -87 -89 0
-87 -90 0
-89 -90 0
87 89 90 0
c gate 91 84 -85 0
84 -91 0
-85 -91 0
-84 85 91 0
c gate 92 36 38 0
36 -92 0
38 -92 0
-36 -38 92 0
c gate 93 -15 -31 0
-15 -93 0
-31 -93 0
15 31 93 0
c gate 94 15 31 0
15 -94 0
31 -94 0
-15 -31 94 0
c gate 95 -93 -94 0
-93 -95 0
-94 -95 0
93 94 95 0
c gate 96 -14 -30 0
-14 -96 0
-30 -96 0
14 30 96 0
c gate 97 14 30 0
14 -97 0
30 -97 0
-14 -30 97 0
c gate 98 -96 -97 0
-96 -98 0
-97 -98 0
96 97 98 0
c gate 99 -13 -29 0
-13 -99 0
-29 -99 0
13 29 99 0
c gate 100 12 28 0
12 -100 0
28 -100 0
-12 -28 100 0
c gate 101 -12 -28 0
-12 -101 0
-28 -101 0
12 28 101 0
c gate 102 -100 -101 0
-100 -102 0
-101 -102 0
100 101 102 0
c gate 103 -10 -26 0
-10 -103 0
-26 -103 0
10 26 103 0
c gate 104 -3 -19 0
-3 -104 0
-19 -104 0
3 19 104 0
c gate 105 2 18 0
2 -105 0
18 -105 0
-2 -18 105 0
c gate 106 -2 -18 0
-2 -106 0
-18 -106 0
2 18 106 0
c gate 107 1 17 0
1 -107 0
17 -107 0
-1 -17 107 0
c gate 108 -106 107 0
-106 -108 0
107 -108 0
106 -107 108 0
c gate 109 -105 -108 0
-105 -109 0
-108 -109 0
105 108 109 0
c gate 110 -104 -109 0
-104 -110 0
-109 -110 0
104 109 110 0
c gate 111 4 20 0
4 -111 0
20 -111 0
-4 -20 111 0
c gate 112 3 19 0
3 -112 0
19 -112 0
-3 -19 112 0
c gate 113 -111 -112 0
-111 -113 0
-112 -113 0
111 112 113 0
c gate 114 -110 113 0
-110 -114 0
113 -114 0
110 -113 114 0
c gate 115 -4 -20 0
-4 -115 0
-20 -115 0
4 20 115 0
c gate 116 -47 -115 0
-47 -116 0
-115 -116 0
47 115 116 0
c gate 117 -114 116 0
-114 -117 0
116 -117 0
114 -116 117 0
c gate 118 -46 -117 0
-46 -118 0
-117 -118 0
46 117 118 0
c gate 119 -51 -118 0
-51 -119 0
-118 -119 0
51 118 119 0
c gate 120 -52 -88 0
-52 -120 0
-88 -120 0
52 88 120 0
c gate 121 -119 120 0
-119 -121 0
120 -121 0
119 -120 121 0
c gate 122 65 121 0
65 -122 0
121 -122 0
-65 -121 122 0
c gate 123 -7 -23 0
-7 -123 0
-23 -123 0
7 23 123 0
c gate 124 -63 123 0
-63 -124 0
123 -124 0
63 -123 124 0
c gate 125 -64 -70 0
-64 -125 0
-70 -125 0
64 70 125 0
c gate 126 -124 125 0
-124 -126 0
125 -126 0
124 -125 126 0
c gate 127 -122 126 0
-122 -127 0
126 -127 0
122 -126 127 0
c gate 128 -69 -127 0
-69 -128 0
-127 -128 0
69 127 128 0
c gate 129 -103 -128 0
-103 -129 0
-128 -129 0
103 128 129 0
c gate 130 10 26 0
10 -130 0
26 -130 0
-10 -26 130 0
c gate 131 -81 -130 0
-81 -131 0
-130 -131 0
81 130 131 0
c gate 132 -129 131 0
-129 -132 0
131 -132 0
129 -131 132 0
c gate 133 -80 -132 0
-80 -133 0
-132 -133 0
80 132 133 0
c gate 134 102 133 0
102 -134 0
133 -134 0
-102 -133 134 0
c gate 135 13 29 0
13 -135 0
29 -135 0
-13 -29 135 0
c gate 136 -100 -135 0
-100 -136 0
-135 -136 0
100 135 136 0
c gate 137 -134 136 0
-134 -137 0
136 -137 0
134 -136 137 0
c gate 138 -99 -137 0
-99 -138 0
-137 -138 0
99 137 138 0
c gate 139 98 -138 0
98 -139 0
-138 -139 0
-98 138 139 0
c gate 140 -96 -139 0
-96 -140 0
-139 -140 0
96 139 140 0
c gate 141 95 -140 0
95 -141 0
-140 -141 0
-95 140 141 0
c gate 142 -93 -141 0
-93 -142 0
-141 -142 0
93 141 142 0
c gate 143 16 -32 0
16 -143 0
-32 -143 0
-16 32 143 0
c gate 144 -16 32 0
-16 -144 0
32 -144 0
16 -32 144 0
c gate 145 -143 -144 0
-143 -145 0
-144 -145 0
143 144 145 0
c gate 146 -142 -145 0
-142 -146 0
-145 -146 0
142 145 146 0
c gate 147 98 -136 0
98 -147 0
-136 -147 0
-98 136 147 0
c gate 148 -97 -147 0
-97 -148 0
-147 -148 0
97 147 148 0
c gate 149 95 148 0
95 -149 0
148 -149 0
-95 -148 149 0
c gate 150 -93 -149 0
-93 -150 0
-149 -150 0
93 149 150 0
c gate 151 146 150 0
146 -151 0
150 -151 0
-146 -150 151 0
c gate 152 -92 -151 0
-92 -152 0
-151 -152 0
92 151 152 0
c gate 153 -84 -152 0
-84 -153 0
-152 -153 0
84 152 153 0
c gate 154 -145 -150 0
-145 -154 0
-150 -154 0
145 150 154 0
c gate 155 142 154 0
142 -155 0
154 -155 0
-142 -154 155 0
c gate 156 152 -155 0
152 -156 0
-155 -156 0
-152 155 156 0
c gate 157 -98 136 0
-98 -157 0
136 -157 0
98 -136 157 0
c gate 158 -147 -157 0
-147 -158 0
-157 -158 0
147 157 158 0
c gate 159 -98 138 0
-98 -159 0
138 -159 0
98 -138 159 0
c gate 160 -139 -159 0
-139 -160 0
-159 -160 0
139 159 160 0
c gate 161 158 160 0
158 -161 0
160 -161 0
-158 -160 161 0
c gate 162 -158 -160 0
-158 -162 0
-160 -162 0
158 160 162 0
c gate 163 -161 -162 0
-161 -163 0
-162 -163 0
161 162 163 0
c gate 164 -69 -130 0
-69 -164 0
-130 -164 0
69 130 164 0
c gate 165 -126 164 0
-126 -165 0
164 -165 0
126 -164 165 0
c gate 166 -80 -103 0
-80 -166 0
-103 -166 0
80 103 166 0
c gate 167 -165 166 0
-165 -167 0
166 -167 0
165 -166 167 0
c gate 168 -81 -167 0
-81 -168 0
-167 -168 0
81 167 168 0
c gate 169 -102 133 0
-102 -169 0
133 -169 0
102 -133 169 0
c gate 170 168 -169 0
168 -170 0
-169 -170 0
-168 169 170 0
c gate 171 102 -133 0
102 -171 0
-133 -171 0
-102 133 171 0
c gate 172 -168 -171 0
-168 -172 0
-171 -172 0
168 171 172 0
c gate 173 -170 -172 0
-170 -173 0
-172 -173 0
170 172 173 0
c gate 174 163 173 0
163 -174 0
173 -174 0
-163 -173 174 0
c gate 175 142 145 0
142 -175 0
145 -175 0
-142 -145 175 0
c gate 176 -146 -175 0
-146 -176 0
-175 -176 0
146 175 176 0
c gate 177 145 150 0
145 -177 0
150 -177 0
-145 -150 177 0
c gate 178 -154 -177 0
-154 -178 0
-177 -178 0
154 177 178 0
c gate 179 -176 178 0
-176 -179 0
178 -179 0
176 -178 179 0
c gate 180 176 -178 0
176 -180 0
-178 -180 0
-176 178 180 0
c gate 181 -95 -148 0
-95 -181 0
-148 -181 0
95 148 181 0
c gate 182 -149 -181 0
-149 -182 0
-181 -182 0
149 181 182 0
c gate 183 -95 140 0
-95 -183 0
140 -183 0
95 -140 183 0
c gate 184 -141 -183 0
-141 -184 0
-183 -184 0
141 183 184 0
c gate 185 182 -184 0
182 -185 0
-184 -185 0
-182 184 185 0
c gate 186 -182 184 0
-182 -186 0
184 -186 0
182 -184 186 0
c gate 187 -99 -135 0
-99 -187 0
-135 -187 0
99 135 187 0
c gate 188 134 -187 0
134 -188 0
-187 -188 0
-134 187 188 0
c gate 189 -162 -188 0
-162 -189 0
-188 -189 0
162 188 189 0
c gate 190 -186 -189 0
-186 -190 0
-189 -190 0
186 189 190 0
c gate 191 -185 -190 0
-185 -191 0
-190 -191 0
185 190 191 0
c gate 192 -180 -191 0
-180 -192 0
-191 -192 0
180 191 192 0
c gate 193 -179 -192 0
-179 -193 0
-192 -193 0
179 192 193 0
c gate 194 -174 193 0
-174 -194 0
193 -194 0
174 -193 194 0
c gate 195 -122 -134 0
-122 -195 0
-134 -195 0
122 134 195 0
c gate 196 163 195 0
163 -196 0
195 -196 0
-163 -195 196 0
c gate 197 -194 -196 0
-194 -197 0
-196 -197 0
194 196 197 0
c gate 198 156 197 0
156 -198 0
197 -198 0
-156 -197 198 0
c gate 199 -153 -198 0
-153 -199 0
-198 -199 0
153 198 199 0
c gate 200 -91 199 0
-91 -200 0
199 -200 0
91 -199 200 0
c gate 201 87 -200 0
87 -201 0
-200 -201 0
-87 200 201 0
c gate 202 -90 -201 0
-90 -202 0
-201 -202 0
90 201 202 0
c gate 203 61 65 0
61 -203 0
65 -203 0
-61 -65 203 0
c gate 204 -62 203 0
-62 -204 0
203 -204 0
62 -203 204 0
c gate 205 202 -204 0
202 -205 0
-204 -205 0
-202 204 205 0
c gate 206 -66 -205 0
-66 -206 0
-205 -206 0
66 205 206 0
c gate 207 -67 -74 0
-67 -207 0
-74 -207 0
67 74 207 0
c gate 208 -71 207 0
-71 -208 0
207 -208 0
71 -207 208 0
c gate 209 66 -208 0
66 -209 0
-208 -209 0
-66 208 209 0
c gate 210 -206 -209 0
-206 -210 0
-209 -210 0
206 209 210 0
c gate 211 -79 82 0
-79 -211 0
82 -211 0
79 -82 211 0
c gate 212 -83 -211 0
-83 -212 0
-211 -212 0
83 211 212 0
c gate 213 77 -212 0
77 -213 0
-212 -213 0
-77 212 213 0
c gate 214 210 -213 0
210 -214 0
-213 -214 0
-210 213 214 0
c gate 215 -83 -214 0
-83 -215 0
-214 -215 0
83 214 215 0
c gate 216 -95 -98 0
-95 -216 0
-98 -216 0
95 98 216 0
c gate 217 -102 145 0
-102 -217 0
145 -217 0
102 -145 217 0
c gate 218 -187 217 0
-187 -218 0
217 -218 0
187 -217 218 0
c gate 219 216 218 0
216 -219 0
218 -219 0
-216 -218 219 0
c gate 220 83 219 0
83 -220 0
219 -220 0
-83 -219 220 0
c gate 221 -215 -220 0
-215 -221 0
-220 -221 0
215 220 221 0
c gate 222 66 -221 0
66 -222 0
-221 -222 0
-66 221 222 0
c gate 223 -66 -204 0
-66 -223 0
-204 -223 0
66 204 223 0
c gate 224 -202 221 0
-202 -224 0
221 -224 0
202 -221 224 0
c gate 225 121 -173 0
121 -225 0
-173 -225 0
-121 173 225 0
c gate 226 -134 -225 0
-134 -226 0
-225 -226 0
134 225 226 0
c gate 227 163 226 0
163 -227 0
226 -227 0
-163 -226 227 0
c gate 228 193 -227 0
193 -228 0
-227 -228 0
-193 227 228 0
c gate 229 156 -228 0
156 -229 0
-228 -229 0
-156 228 229 0
c gate 230 -153 -229 0
-153 -230 0
-229 -230 0
153 229 230 0
c gate 231 -91 230 0
-91 -231 0
230 -231 0
91 -230 231 0
c gate 232 87 -231 0
87 -232 0
-231 -232 0
-87 231 232 0
c gate 233 -90 -232 0
-90 -233 0
-232 -233 0
90 232 233 0
c gate 234 -221 233 0
-221 -234 0
233 -234 0
221 -233 234 0
c gate 235 -224 -234 0
-224 -235 0
-234 -235 0
224 234 235 0
c gate 236 223 235 0
223 -236 0
235 -236 0
-223 -235 236 0
c gate 237 -204 -221 0
-204 -237 0
-221 -237 0
204 221 237 0
c gate 238 -236 237 0
-236 -238 0
237 -238 0
236 -237 238 0
c gate 239 -210 221 0
-210 -239 0
221 -239 0
210 -221 239 0
c gate 240 -66 -239 0
-66 -240 0
-239 -240 0
66 239 240 0
c gate 241 -238 240 0
-238 -241 0
240 -241 0
238 -240 241 0
c gate 242 -222 -241 0
-222 -242 0
-241 -242 0
222 241 242 0
c PO
242 0
